c Random generated cnf formula, satisfiable: false
p cnf 10 50
-4 1 3 0
9 -8 -6 0
3 8 6 0
-3 2 1 0
4 -5 -8 0
-7 10 -5 0
3 -1 -5 0
-5 -9 4 0
-4 2 -7 0
2 8 3 0
-4 -8 -5 0
-2 10 -7 0
4 8 3 0
-2 7 1 0
8 -9 1 0
-9 8 -4 0
5 -6 3 0
2 6 -3 0
9 7 -6 0
-1 -8 10 0
9 1 -4 0
-7 9 5 0
-2 9 -1 0
1 -8 6 0
-5 7 3 0
-10 8 -3 0
2 -8 5 0
-9 -10 3 0
-3 -8 -1 0
-1 -4 6 0
7 -9 -10 0
3 5 4 0
5 -3 10 0
-4 6 -2 0
7 -4 5 0
6 9 -8 0
-9 -8 4 0
9 -3 8 0
-3 -8 7 0
7 -6 9 0
-8 9 -5 0
-8 7 5 0
1 4 -9 0
-4 -9 -6 0
7 5 -9 0
2 10 5 0
-5 -7 2 0
-7 -1 -4 0
-5 7 3 0
-7 -9 8 0
